c FILE /home/rafael/Documents/HappySet/MIHS/inputs/happygen/output/graph_scale_free_k3_p0.2_v100_20241127_083808.txt
c SOURCE This is a scale-free graph formed for the happy graph colouring problem.
c DESCRIPTION It was generated using the problem generator of Rhyd Lewis
c
c GRAPH STATS
c Seed                             = -1217168621
c Number of Nodes                  = 100
c Number of colours k              = 3
c Number of pre-assignments        = 20
c Number of links per new node     = 5
c Density                          = 0.0979798
c 
c The degrees of nodes 1 to 100, respectively, are as follows 
c [36, 35, 30, 30, 25, 23, 23, 22, 20, 20, 19, 18, 17, 16, 16, 16, 14, 13, 13, 12, 12, 12, 11, 11, 11, 11, 
c  10, 10, 10, 9, 9, 9, 9, 9, 9, 8, 8, 8, 8, 8, 8, 8, 8, 8, 8, 7, 7, 7, 7, 7, 7, 
c  7, 7, 7, 7, 7, 7, 7, 7, 7, 6, 6, 6, 6, 6, 6, 6, 6, 6, 6, 6, 6, 6, 6, 6, 5, 
c  5, 5, 5, 5, 5, 5, 5, 5, 5, 5, 5, 5, 5, 5, 5, 5, 5, 5, 5, 5, 5, 5, 5, 5] 
c  
p edge 100 485 3
e 1 2
e 1 3
e 1 4
e 1 6
e 1 7
e 1 8
e 1 9
e 1 10
e 1 14
e 1 15
e 1 16
e 1 21
e 1 22
e 1 24
e 1 25
e 1 27
e 1 28
e 1 30
e 1 33
e 1 34
e 1 36
e 1 42
e 1 43
e 1 46
e 1 51
e 1 52
e 1 54
e 1 55
e 1 57
e 1 58
e 1 63
e 1 64
e 1 67
e 1 69
e 1 92
e 1 97
e 2 3
e 2 4
e 2 5
e 2 6
e 2 7
e 2 8
e 2 11
e 2 14
e 2 15
e 2 16
e 2 17
e 2 18
e 2 19
e 2 24
e 2 28
e 2 30
e 2 31
e 2 34
e 2 37
e 2 39
e 2 46
e 2 49
e 2 51
e 2 54
e 2 60
e 2 64
e 2 67
e 2 72
e 2 76
e 2 77
e 2 85
e 2 87
e 2 98
e 2 99
e 3 4
e 3 5
e 3 6
e 3 7
e 3 8
e 3 9
e 3 12
e 3 13
e 3 14
e 3 18
e 3 19
e 3 20
e 3 23
e 3 27
e 3 28
e 3 31
e 3 32
e 3 34
e 3 35
e 3 37
e 3 38
e 3 41
e 3 49
e 3 63
e 3 65
e 3 70
e 3 85
e 3 98
e 4 6
e 4 7
e 4 10
e 4 12
e 4 15
e 4 16
e 4 20
e 4 22
e 4 23
e 4 26
e 4 30
e 4 31
e 4 36
e 4 43
e 4 50
e 4 56
e 4 59
e 4 64
e 4 67
e 4 70
e 4 71
e 4 73
e 4 75
e 4 77
e 4 79
e 4 80
e 4 82
e 5 7
e 5 8
e 5 14
e 5 19
e 5 21
e 5 26
e 5 29
e 5 31
e 5 38
e 5 41
e 5 44
e 5 48
e 5 53
e 5 56
e 5 58
e 5 60
e 5 66
e 5 69
e 5 73
e 5 81
e 5 87
e 5 93
e 5 97
e 6 7
e 6 8
e 6 9
e 6 11
e 6 12
e 6 14
e 6 15
e 6 17
e 6 18
e 6 28
e 6 30
e 6 49
e 6 51
e 6 52
e 6 82
e 6 84
e 6 86
e 6 91
e 6 99
e 7 8
e 7 9
e 7 18
e 7 19
e 7 20
e 7 27
e 7 33
e 7 35
e 7 36
e 7 37
e 7 62
e 7 70
e 7 76
e 7 77
e 7 93
e 7 96
e 7 100
e 8 9
e 8 10
e 8 14
e 8 17
e 8 21
e 8 22
e 8 23
e 8 24
e 8 47
e 8 61
e 8 62
e 8 76
e 8 84
e 8 86
e 8 88
e 8 97
e 9 10
e 9 12
e 9 16
e 9 20
e 9 23
e 9 38
e 9 40
e 9 41
e 9 44
e 9 45
e 9 50
e 9 53
e 9 54
e 9 61
e 9 96
e 10 11
e 10 14
e 10 18
e 10 32
e 10 43
e 10 46
e 10 47
e 10 48
e 10 52
e 10 54
e 10 55
e 10 59
e 10 66
e 10 73
e 10 79
e 10 95
e 11 12
e 11 13
e 11 17
e 11 20
e 11 25
e 11 33
e 11 42
e 11 43
e 11 44
e 11 45
e 11 52
e 11 65
e 11 66
e 11 87
e 11 90
e 11 96
e 12 14
e 12 34
e 12 37
e 12 42
e 12 46
e 12 47
e 12 48
e 12 49
e 12 50
e 12 53
e 12 60
e 12 67
e 12 71
e 13 18
e 13 27
e 13 29
e 13 41
e 13 51
e 13 63
e 13 65
e 13 67
e 13 68
e 13 69
e 13 72
e 13 78
e 13 79
e 13 82
e 13 99
e 14 15
e 14 20
e 14 22
e 14 23
e 14 42
e 14 43
e 14 53
e 14 85
e 15 16
e 15 26
e 15 33
e 15 36
e 15 42
e 15 47
e 15 57
e 15 58
e 15 78
e 15 81
e 15 91
e 16 21
e 16 26
e 16 27
e 16 36
e 16 37
e 16 38
e 16 53
e 16 66
e 16 94
e 16 95
e 16 96
e 17 29
e 17 38
e 17 39
e 17 41
e 17 46
e 17 52
e 17 64
e 17 70
e 17 72
e 17 91
e 18 30
e 18 35
e 18 40
e 18 45
e 18 50
e 18 61
e 18 78
e 19 21
e 19 29
e 19 31
e 19 32
e 19 35
e 19 56
e 19 60
e 19 83
e 19 84
e 20 21
e 20 24
e 20 25
e 20 29
e 20 92
e 20 98
e 21 25
e 21 39
e 21 58
e 21 63
e 21 75
e 21 93
e 22 31
e 22 40
e 22 49
e 22 50
e 22 60
e 22 78
e 22 90
e 22 100
e 23 27
e 23 41
e 23 51
e 23 76
e 23 82
e 23 88
e 24 28
e 24 32
e 24 39
e 24 48
e 24 68
e 24 82
e 24 83
e 25 28
e 25 40
e 25 70
e 25 72
e 25 76
e 25 87
e 25 90
e 26 48
e 26 68
e 26 84
e 26 85
e 26 86
e 26 88
e 26 93
e 27 28
e 27 45
e 27 55
e 27 95
e 28 34
e 28 46
e 28 57
e 29 35
e 29 57
e 29 68
e 29 86
e 29 92
e 30 56
e 30 74
e 30 89
e 30 94
e 31 55
e 31 62
e 31 85
e 32 36
e 32 62
e 32 68
e 32 77
e 32 86
e 33 38
e 33 57
e 33 88
e 33 90
e 33 100
e 34 54
e 34 59
e 34 61
e 34 62
e 35 44
e 35 45
e 35 81
e 35 84
e 36 47
e 36 58
e 37 48
e 37 81
e 37 88
e 38 39
e 38 63
e 39 44
e 39 74
e 39 79
e 40 48
e 40 79
e 40 80
e 40 91
e 41 78
e 41 98
e 42 80
e 42 89
e 42 100
e 43 56
e 43 73
e 43 77
e 44 80
e 44 94
e 44 99
e 45 71
e 45 83
e 45 92
e 46 89
e 47 61
e 47 81
e 49 65
e 49 72
e 50 59
e 50 71
e 51 89
e 51 98
e 52 74
e 52 97
e 53 64
e 53 80
e 54 55
e 54 66
e 55 75
e 55 83
e 56 87
e 56 94
e 57 59
e 57 69
e 58 95
e 58 100
e 59 73
e 59 97
e 60 75
e 60 92
e 61 65
e 62 93
e 63 90
e 64 89
e 65 74
e 66 83
e 67 69
e 68 71
e 69 95
e 70 96
e 71 74
e 72 75
e 73 91
e 74 94
e 75 99
n 2 3
n 10 1
n 15 3
n 16 3
n 20 2
n 22 3
n 23 2
n 41 2
n 42 3
n 44 3
n 48 1
n 56 3
n 57 3
n 61 1
n 65 1
n 67 3
n 68 2
n 70 1
n 81 3
n 88 2
